100 244
122 325 1
107 178 2
121 336 2
160 335 2
76 127 1
66 195 1
80 131 1
70 291 2
96 143 3
105 152 1
64 207 2
64 198 4
75 183 2
64 181 8
64 148 2
50 257 6
68 221 8
80 190 3
79 165 4
101 162 2
75 161 3
90 156 2
91 156 2
81 129 2
74 295 2
59 221 2
101 219 2
46 207 2
65 205 2
68 204 4
65 203 4
80 165 3
80 135 3
80 272 2
72 272 4
72 258 2
70 258 2
111 233 2
63 230 2
80 138 2
67 133 4
79 284 4
100 250 1
50 148 2
45 188 2
157 292 2
134 322 1
74 147 1
66 217 6
126 199 2
80 197 8
85 193 6
112 184 1
93 132 1
81 132 2
80 97 2
72 97 1
67 70 2
81 157 2
144 291 2
98 154 2
222 312 2
105 312 2
63 287 2
63 286 2
62 285 2
63 283 2
125 248 1
50 228 10
117 133 1
142 298 1
133 286 1
123 286 1
133 268 1
151 255 1
55 231 2
116 148 1
111 148 1
106 117 1
178 329 1
110 372 2
154 327 2
188 327 4
137 315 2
104 315 2
117 312 2
204 302 2
188 302 2
171 302 2
154 302 2
121 302 2
121 205 2
167 202 2
117 167 2
104 144 2
121 122 8
110 306 1
95 167 2
78 167 4
78 225 2
500 1000 
500 1000 
500 1000 
500 1000 
500 1000 
500 1000 
500 1000 
500 1000 
500 1000 
500 1000 
500 1000 
500 1000 
500 1000 
500 1000 
500 1000 
500 1000 
500 1000 
500 1000 
500 1000 
500 1000 
500 1000 
500 1000 
500 1000 
500 1000 
500 1000 
500 1000 
500 1000 
500 1000 
500 1000 
500 1000 
500 1000 
500 1000 
500 1000 
500 1000 
500 1000 
500 1000 
500 1000 
500 1000 
500 1000 
500 1000 
500 1000 
500 1000 
500 1000 
500 1000 
500 1000 
500 1000 
500 1000 
500 1000 
500 1000 
500 1000 
500 1000 
500 1000 
500 1000 
500 1000 
500 1000 
500 1000 
500 1000 
500 1000 
500 1000 
500 1000 
500 1000 
500 1000 
500 1000 
500 1000 
500 1000 
500 1000 
500 1000 
500 1000 
500 1000 
500 1000 
500 1000 
500 1000 
500 1000 
500 1000 
500 1000 
500 1000 
500 1000 
500 1000 
500 1000 
500 1000 
500 1000 
500 1000 
500 1000 
500 1000 
500 1000 
500 1000 
500 1000 
500 1000 
500 1000 
500 1000 
500 1000 
500 1000 
500 1000 
500 1000 
500 1000 
500 1000 
500 1000 
500 1000 
500 1000 
500 1000 
500 1000 
500 1000 
500 1000 
500 1000 
500 1000 
500 1000 
500 1000 
500 1000 
500 1000 
500 1000 
500 1000 
500 1000 
500 1000 
500 1000 
500 1000 
500 1000 
500 1000 
500 1000 
500 1000 
500 1000 
500 1000 
500 1000 
500 1000 
500 1000 
500 1000 
500 1000 
500 1000 
500 1000 
500 1000 
500 1000 
500 1000 
500 1000 
500 1000 
500 1000 
500 1000 
500 1000 
500 1000 
500 1000 
500 1000 
500 1000 
500 1000 
500 1000 
500 1000 
500 1000 
500 1000 
500 1000 
500 1000 
500 1000 
500 1000 
500 1000 
500 1000 
500 1000 
500 1000 
500 1000 
500 1000 
500 1000 
500 1000 
500 1000 
500 1000 
500 1000 
500 1000 
500 1000 
500 1000 
500 1000 
500 1000 
500 1000 
500 1000 
500 1000 
500 1000 
500 1000 
500 1000 
500 1000 
500 1000 
500 1000 
500 1000 
500 1000 
500 1000 
500 1000 
500 1000 
500 1000 
500 1000 
500 1000 
500 1000 
500 1000 
500 1000 
500 1000 
500 1000 
500 1000 
500 1000 
500 1000 
500 1000 
500 1000 
500 1000 
500 1000 
500 1000 
500 1000 
500 1000 
500 1000 
500 1000 
500 1000 
500 1000 
500 1000 
500 1000 
500 1000 
500 1000 
500 1000 
500 1000 
500 1000 
500 1000 
500 1000 
500 1000 
500 1000 
500 1000 
500 1000 
500 1000 
500 1000 
500 1000 
500 1000 
500 1000 
500 1000 
500 1000 
500 1000 
500 1000 
500 1000 
500 1000 
500 1000 
500 1000 
500 1000 
500 1000 
500 1000 
500 1000 
500 1000 
500 1000 
500 1000 
500 1000 
500 1000 
500 1000 
500 1000 
500 1000 
500 1000 
500 1000 
500 1000 
500 1000 
500 1000 
